50
100 100
1 70 298
2 69 583
3 69 101
4 67 465
5 67 907
6 66 241
7 66 1000
8 66 421
9 66 749
10 65 486
11 65 639
12 64 714
13 63 771
14 63 472
15 62 630
16 61 939
17 59 118
18 59 252
19 58 63
20 58 206
21 57 134
22 55 767
23 54 120
24 53 204
25 52 800
26 51 874
27 50 973
28 48 194
29 48 956
30 47 24
31 46 668
32 44 865
33 44 812
34 40 534
35 39 589
36 39 836
37 38 874
38 38 771
39 33 225
40 33 39
41 32 70
42 32 901
43 31 226
44 30 698
45 30 842
46 28 74
47 25 641
48 25 77
49 21 625
50 20 497
